p tw 144 2281 8 
1 9 
1 11 
1 121 
1 123 
2 7 
2 10 
2 12 
2 122 
2 124 
3 5 
3 8 
3 10 
4 6 
4 7 
4 9 
5 9 
5 10 
6 7 
6 8 
11 18 
11 19 
11 123 
12 17 
12 20 
12 124 
13 18 
13 20 
13 23 
14 17 
14 19 
14 24 
15 19 
15 20 
15 25 
16 17 
16 18 
16 26 
21 28 
21 29 
21 31 
21 125 
21 127 
22 27 
22 30 
22 32 
22 126 
22 128 
23 28 
23 30 
24 27 
24 29 
25 29 
25 30 
26 27 
26 28 
31 38 
31 39 
31 127 
32 37 
32 40 
32 128 
33 38 
33 40 
33 43 
34 37 
34 39 
34 44 
35 39 
35 40 
35 45 
36 37 
36 38 
36 46 
41 48 
41 49 
41 51 
41 129 
41 131 
42 47 
42 50 
42 52 
42 130 
42 132 
43 48 
43 50 
44 47 
44 49 
45 49 
45 50 
46 47 
46 48 
51 58 
51 59 
51 131 
52 57 
52 60 
52 132 
53 58 
53 60 
53 63 
54 57 
54 59 
54 64 
55 59 
55 60 
55 65 
56 57 
56 58 
56 66 
61 68 
61 69 
61 71 
61 133 
61 135 
62 67 
62 70 
62 72 
62 134 
62 136 
63 68 
63 70 
64 67 
64 69 
65 69 
65 70 
66 67 
66 68 
71 78 
71 79 
71 135 
72 77 
72 80 
72 136 
73 78 
73 80 
73 83 
74 77 
74 79 
74 84 
75 79 
75 80 
75 85 
76 77 
76 78 
76 86 
81 88 
81 89 
81 91 
81 137 
81 139 
82 87 
82 90 
82 92 
82 138 
82 140 
83 88 
83 90 
84 87 
84 89 
85 89 
85 90 
86 87 
86 88 
91 98 
91 99 
91 139 
92 97 
92 100 
92 140 
93 98 
93 100 
93 103 
94 97 
94 99 
94 104 
95 99 
95 100 
95 105 
96 97 
96 98 
96 106 
101 108 
101 109 
101 111 
101 141 
101 143 
102 107 
102 110 
102 112 
102 142 
102 144 
103 108 
103 110 
104 107 
104 109 
105 109 
105 110 
106 107 
106 108 
111 118 
111 119 
111 143 
112 117 
112 120 
112 144 
113 115 
113 118 
113 120 
114 116 
114 117 
114 119 
115 119 
115 120 
116 117 
116 118 
121 122 
123 124 
125 126 
127 128 
129 130 
131 132 
133 134 
135 136 
137 138 
139 140 
141 142 
143 144 
